SAT
Model:
1 -> true
2 -> false
3 -> true
4 -> false
5 -> false
6 -> false
7 -> false
8 -> true
9 -> false
10 -> false
11 -> true
12 -> false
13 -> true
14 -> true
15 -> false
16 -> false
17 -> true
18 -> false
19 -> false
20 -> true
21 -> false
22 -> false
23 -> false
24 -> true
25 -> true
26 -> true
27 -> false
28 -> true
29 -> false
30 -> false
31 -> true
32 -> true
33 -> false
34 -> false
35 -> false
36 -> true
37 -> true
38 -> true
39 -> true
40 -> false
41 -> true
42 -> true
43 -> true
44 -> true
45 -> false
46 -> false
47 -> false
48 -> true
49 -> false
50 -> false
51 -> false
52 -> true
53 -> true
54 -> false
55 -> false
56 -> true
57 -> true
58 -> true
59 -> true
60 -> false
61 -> true
62 -> false
63 -> true
64 -> true
65 -> true
66 -> true
67 -> false
68 -> false
69 -> false
70 -> true
71 -> true
72 -> true
73 -> false
74 -> true
75 -> false
